[[89, 90, 99, 98, 97, 96, 87, 86, 85, 95, 94, 93, 92, 91, 83, 82, 73, 84], [76, 75, 67, 68, 66, 74, 65, 64, 56, 55, 46, 47, 57, 58, 59, 60, 49, 50], [48, 38, 39, 40, 41, 32, 31, 30, 29, 37, 28, 19, 20, 21, 22, 13, 12, 11, 10], [2, 3, 4, 14, 5, 6, 7, 8, 9, 18, 17, 16, 15, 23, 24, 25, 26, 27, 35, 36], [44, 34, 33, 43, 42, 51, 52, 53, 45, 54, 63, 61, 62, 72, 71, 81, 80, 70, 69, 78, 77, 79, 88]]